; benchmark generated from python API
(set-info :status unknown)
(declare-fun x_days () Int)
(declare-fun y_days () Int)
(assert
 (>= x_days (- 36584)))
(assert
 (<= x_days 36829))
(assert
 (>= y_days (- 36584)))
(assert
 (<= y_days 36829))
(assert
 (= x_days 7275))
(assert
 (= y_days 6910))
(assert
 (let (($x29 (or (and (= (mod 2000 4) 0) (and (distinct (mod 2000 100) 0) true)) (= (mod 2000 400) 0))))
 (let ((?x36 (ite (= 3 2) (ite $x29 31 31) (ite (= 3 1) (ite $x29 0 0) 0))))
 (let ((?x40 (ite $x29 60 59)))
 (let ((?x41 (ite (= 3 3) ?x40 ?x36)))
 (let ((?x46 (ite (= 3 4) (ite $x29 91 90) ?x41)))
 (let ((?x52 (ite (= 3 5) (ite $x29 121 120) ?x46)))
 (let ((?x58 (ite (= 3 6) (ite $x29 152 151) ?x52)))
 (let ((?x64 (ite (= 3 7) (ite $x29 182 181) ?x58)))
 (let ((?x70 (ite (= 3 8) (ite $x29 213 212) ?x64)))
 (let ((?x76 (ite (= 3 9) (ite $x29 244 243) ?x70)))
 (let ((?x82 (ite (= 3 10) (ite $x29 274 273) ?x76)))
 (let ((?x88 (ite (= 3 11) (ite $x29 305 304) ?x82)))
 (let ((?x16 (- (+ (* 365 (- 2000 1)) (div (- 2000 1) 4)) (div (- 2000 1) 100))))
 (let ((?x95 (+ (+ ?x16 (div (- 2000 1) 400)) (ite (= 3 12) (ite $x29 335 334) ?x88))))
 (let ((?x97 (+ ?x95 (- 1 1))))
 (let ((?x850 (+ x_days ?x97)))
 (let ((?x499 (mod ?x850 146097)))
 (let ((?x877 (div ?x499 36524)))
 (let ((?x631 (ite (<= 4 ?x877) 3 ?x877)))
 (let ((?x381 (- ?x499 (* ?x631 36524))))
 (let ((?x548 (mod ?x381 1461)))
 (let ((?x943 (div ?x548 365)))
 (let ((?x811 (ite (<= 4 ?x943) 3 ?x943)))
 (let ((?x189 (+ (+ (* (div ?x850 146097) 400) (* ?x631 100)) (* (div ?x381 1461) 4))))
 (let ((?x180 (+ (+ ?x189 ?x811) 1)))
 (let (($x615 (or (and (= (mod ?x180 4) 0) (and (distinct (mod ?x180 100) 0) true)) (= (mod ?x180 400) 0))))
 (let ((?x680 (- ?x548 (* ?x811 365))))
 (let ((?x107 (ite $x615 31 31)))
 (let (($x595 (>= ?x680 ?x107)))
 (let ((?x396 (ite $x595 (+ (- ?x680 ?x107) 1) (+ (- ?x680 (ite $x615 0 0)) 1))))
 (let ((?x518 (ite $x615 60 59)))
 (let (($x336 (>= ?x680 ?x518)))
 (let ((?x542 (ite $x615 91 90)))
 (let (($x636 (>= ?x680 ?x542)))
 (let ((?x586 (ite $x636 (+ (- ?x680 ?x542) 1) (ite $x336 (+ (- ?x680 ?x518) 1) ?x396))))
 (let ((?x660 (ite $x615 121 120)))
 (let (($x491 (>= ?x680 ?x660)))
 (let ((?x685 (ite $x615 152 151)))
 (let (($x266 (>= ?x680 ?x685)))
 (let ((?x772 (ite $x266 (+ (- ?x680 ?x685) 1) (ite $x491 (+ (- ?x680 ?x660) 1) ?x586))))
 (let ((?x661 (ite $x615 182 181)))
 (let (($x208 (>= ?x680 ?x661)))
 (let ((?x983 (ite $x615 213 212)))
 (let (($x721 (>= ?x680 ?x983)))
 (let ((?x597 (ite $x721 (+ (- ?x680 ?x983) 1) (ite $x208 (+ (- ?x680 ?x661) 1) ?x772))))
 (let ((?x341 (ite $x615 244 243)))
 (let (($x577 (>= ?x680 ?x341)))
 (let ((?x431 (ite $x615 274 273)))
 (let (($x532 (>= ?x680 ?x431)))
 (let ((?x767 (ite $x532 (+ (- ?x680 ?x431) 1) (ite $x577 (+ (- ?x680 ?x341) 1) ?x597))))
 (let ((?x428 (ite $x615 305 304)))
 (let (($x611 (>= ?x680 ?x428)))
 (let ((?x562 (ite $x615 335 334)))
 (let (($x494 (>= ?x680 ?x562)))
 (let ((?x360 (ite $x494 (+ (- ?x680 ?x562) 1) (ite $x611 (+ (- ?x680 ?x428) 1) ?x767))))
 (let ((?x319 (ite $x491 5 (ite $x636 4 (ite $x336 3 (ite $x595 2 1))))))
 (let ((?x479 (ite $x577 9 (ite $x721 8 (ite $x208 7 (ite $x266 6 ?x319))))))
 (let ((?x356 (- (+ (ite $x494 12 (ite $x611 11 (ite $x532 10 ?x479))) 1) 1)))
 (let ((?x375 (+ (mod ?x356 12) 1)))
 (let ((?x276 (ite (or (= ?x375 4) (= ?x375 6) (= ?x375 9) (= ?x375 11)) 30 31)))
 (let (($x507 (and (= (mod (+ (+ ?x180 0) (div ?x356 12)) 4) 0) (and (distinct (mod (+ (+ ?x180 0) (div ?x356 12)) 100) 0) true))))
 (let (($x626 (or $x507 (= (mod (+ (+ ?x180 0) (div ?x356 12)) 400) 0))))
 (let ((?x3121 (ite (= ?x375 2) (ite $x626 29 28) ?x276)))
 (let ((?x844 (ite (= 2 ?x375) (ite $x626 31 31) (ite (= 1 ?x375) (ite $x626 0 0) 0))))
 (let ((?x259 (ite (= 4 ?x375) (ite $x626 91 90) (ite (= 3 ?x375) (ite $x626 60 59) ?x844))))
 (let ((?x212 (ite (= 6 ?x375) (ite $x626 152 151) (ite (= 5 ?x375) (ite $x626 121 120) ?x259))))
 (let ((?x312 (ite (= 8 ?x375) (ite $x626 213 212) (ite (= 7 ?x375) (ite $x626 182 181) ?x212))))
 (let ((?x113 (ite (= 10 ?x375) (ite $x626 274 273) (ite (= 9 ?x375) (ite $x626 244 243) ?x312))))
 (let ((?x703 (ite (= 12 ?x375) (ite $x626 335 334) (ite (= 11 ?x375) (ite $x626 305 304) ?x113))))
 (let ((?x337 (+ (* 365 (- (+ (+ ?x180 0) (div ?x356 12)) 1)) (div (- (+ (+ ?x180 0) (div ?x356 12)) 1) 4))))
 (let ((?x281 (+ (- ?x337 (div (- (+ (+ ?x180 0) (div ?x356 12)) 1) 100)) (div (- (+ (+ ?x180 0) (div ?x356 12)) 1) 400))))
 (let ((?x1256 (+ (+ ?x281 ?x703) (- (ite (> 1 ?x360) 1 (ite (> ?x360 ?x3121) ?x3121 ?x360)) 1))))
 (= (- (+ ?x1256 0) ?x97) 7304))))))))))))))))))))))))))))))))))))))))))))))))))))))))))))))))))))))))))
(assert
 (let (($x29 (or (and (= (mod 2000 4) 0) (and (distinct (mod 2000 100) 0) true)) (= (mod 2000 400) 0))))
(let ((?x36 (ite (= 3 2) (ite $x29 31 31) (ite (= 3 1) (ite $x29 0 0) 0))))
(let ((?x40 (ite $x29 60 59)))
(let ((?x41 (ite (= 3 3) ?x40 ?x36)))
(let ((?x46 (ite (= 3 4) (ite $x29 91 90) ?x41)))
(let ((?x52 (ite (= 3 5) (ite $x29 121 120) ?x46)))
(let ((?x58 (ite (= 3 6) (ite $x29 152 151) ?x52)))
(let ((?x64 (ite (= 3 7) (ite $x29 182 181) ?x58)))
(let ((?x70 (ite (= 3 8) (ite $x29 213 212) ?x64)))
(let ((?x76 (ite (= 3 9) (ite $x29 244 243) ?x70)))
(let ((?x82 (ite (= 3 10) (ite $x29 274 273) ?x76)))
(let ((?x88 (ite (= 3 11) (ite $x29 305 304) ?x82)))
(let ((?x16 (- (+ (* 365 (- 2000 1)) (div (- 2000 1) 4)) (div (- 2000 1) 100))))
(let ((?x95 (+ (+ ?x16 (div (- 2000 1) 400)) (ite (= 3 12) (ite $x29 335 334) ?x88))))
(let ((?x97 (+ ?x95 (- 1 1))))
(let ((?x2772 (+ y_days ?x97)))
(let ((?x484 (mod ?x2772 146097)))
(let ((?x1106 (div ?x484 36524)))
(let ((?x398 (ite (<= 4 ?x1106) 3 ?x1106)))
(let ((?x1054 (- ?x484 (* ?x398 36524))))
(let ((?x216 (mod ?x1054 1461)))
(let ((?x2691 (div ?x216 365)))
(let ((?x3170 (ite (<= 4 ?x2691) 3 ?x2691)))
(let ((?x268 (+ (+ (* (div ?x2772 146097) 400) (* ?x398 100)) (* (div ?x1054 1461) 4))))
(let ((?x762 (+ (+ ?x268 ?x3170) 1)))
(let (($x3455 (or (and (= (mod ?x762 4) 0) (and (distinct (mod ?x762 100) 0) true)) (= (mod ?x762 400) 0))))
(let ((?x2509 (- ?x216 (* ?x3170 365))))
(let ((?x2174 (ite $x3455 31 31)))
(let (($x1851 (>= ?x2509 ?x2174)))
(let ((?x2094 (ite $x1851 (+ (- ?x2509 ?x2174) 1) (+ (- ?x2509 (ite $x3455 0 0)) 1))))
(let ((?x2635 (ite $x3455 60 59)))
(let (($x305 (>= ?x2509 ?x2635)))
(let ((?x1250 (ite $x3455 91 90)))
(let (($x644 (>= ?x2509 ?x1250)))
(let ((?x1470 (ite $x644 (+ (- ?x2509 ?x1250) 1) (ite $x305 (+ (- ?x2509 ?x2635) 1) ?x2094))))
(let ((?x1381 (ite $x3455 121 120)))
(let (($x3171 (>= ?x2509 ?x1381)))
(let ((?x2535 (ite $x3455 152 151)))
(let (($x1726 (>= ?x2509 ?x2535)))
(let ((?x1529 (ite $x1726 (+ (- ?x2509 ?x2535) 1) (ite $x3171 (+ (- ?x2509 ?x1381) 1) ?x1470))))
(let ((?x627 (ite $x3455 182 181)))
(let (($x2008 (>= ?x2509 ?x627)))
(let ((?x3511 (ite $x3455 213 212)))
(let (($x2819 (>= ?x2509 ?x3511)))
(let ((?x3380 (ite $x2819 (+ (- ?x2509 ?x3511) 1) (ite $x2008 (+ (- ?x2509 ?x627) 1) ?x1529))))
(let ((?x1713 (ite $x3455 244 243)))
(let (($x1012 (>= ?x2509 ?x1713)))
(let ((?x2937 (ite $x3455 274 273)))
(let (($x545 (>= ?x2509 ?x2937)))
(let ((?x474 (ite $x545 (+ (- ?x2509 ?x2937) 1) (ite $x1012 (+ (- ?x2509 ?x1713) 1) ?x3380))))
(let ((?x3367 (ite $x3455 305 304)))
(let (($x476 (>= ?x2509 ?x3367)))
(let ((?x3125 (ite $x3455 335 334)))
(let (($x2809 (>= ?x2509 ?x3125)))
(let ((?x1821 (ite $x2809 (+ (- ?x2509 ?x3125) 1) (ite $x476 (+ (- ?x2509 ?x3367) 1) ?x474))))
(let ((?x415 (ite $x3171 5 (ite $x644 4 (ite $x305 3 (ite $x1851 2 1))))))
(let ((?x3162 (ite $x1012 9 (ite $x2819 8 (ite $x2008 7 (ite $x1726 6 ?x415))))))
(let ((?x2846 (- (+ (ite $x2809 12 (ite $x476 11 (ite $x545 10 ?x3162))) 1) 1)))
(let ((?x1881 (+ (mod ?x2846 12) 1)))
(let ((?x955 (ite (or (= ?x1881 4) (= ?x1881 6) (= ?x1881 9) (= ?x1881 11)) 30 31)))
(let (($x3252 (and (= (mod (+ (+ ?x762 0) (div ?x2846 12)) 4) 0) (and (distinct (mod (+ (+ ?x762 0) (div ?x2846 12)) 100) 0) true))))
(let (($x1950 (or $x3252 (= (mod (+ (+ ?x762 0) (div ?x2846 12)) 400) 0))))
(let ((?x329 (ite (= ?x1881 2) (ite $x1950 29 28) ?x955)))
(let ((?x642 (ite (= 2 ?x1881) (ite $x1950 31 31) (ite (= 1 ?x1881) (ite $x1950 0 0) 0))))
(let ((?x2385 (ite (= 4 ?x1881) (ite $x1950 91 90) (ite (= 3 ?x1881) (ite $x1950 60 59) ?x642))))
(let ((?x3189 (ite (= 6 ?x1881) (ite $x1950 152 151) (ite (= 5 ?x1881) (ite $x1950 121 120) ?x2385))))
(let ((?x2459 (ite (= 8 ?x1881) (ite $x1950 213 212) (ite (= 7 ?x1881) (ite $x1950 182 181) ?x3189))))
(let ((?x1839 (ite (= 10 ?x1881) (ite $x1950 274 273) (ite (= 9 ?x1881) (ite $x1950 244 243) ?x2459))))
(let ((?x856 (ite (= 12 ?x1881) (ite $x1950 335 334) (ite (= 11 ?x1881) (ite $x1950 305 304) ?x1839))))
(let ((?x3209 (+ (* 365 (- (+ (+ ?x762 0) (div ?x2846 12)) 1)) (div (- (+ (+ ?x762 0) (div ?x2846 12)) 1) 4))))
(let ((?x1588 (+ (- ?x3209 (div (- (+ (+ ?x762 0) (div ?x2846 12)) 1) 100)) (div (- (+ (+ ?x762 0) (div ?x2846 12)) 1) 400))))
(let ((?x318 (+ (+ ?x1588 ?x856) (- (ite (> 1 ?x1821) 1 (ite (> ?x1821 ?x329) ?x329 ?x1821)) 1))))
(= (- (+ ?x318 0) ?x97) 6938))))))))))))))))))))))))))))))))))))))))))))))))))))))))))))))))))))))))))
(check-sat)
